(set-logic ALL)
(declare-var i (_ BitVec 32))
(declare-var b (_ BitVec 32))
(declare-var n (_ BitVec 32))
(declare-var i! (_ BitVec 32))
(declare-var b! (_ BitVec 32))
(declare-var n! (_ BitVec 32))
(synth-fun inv-f((parameter0 (_ BitVec 32))(parameter1 (_ BitVec 32))(parameter2 (_ BitVec 32)))Bool) 
(constraint (=> (and (= i (_ bv0 32)) (bvult i n) )(inv-f i b n )))
(constraint (=> (and (inv-f i b n ) (and (and (bvult i n) (= n! n) ) (or (and (= b! (_ bv0 32)) (= i! i) ) (and (not (= b! (_ bv0 32))) (= i! (bvadd i (_ bv1 32))) ) ) ) )(inv-f i! b! n! )))
(constraint (=> (inv-f i b n )(or (bvult i n) (and (= i n) (not (= b (_ bv0 32))) ) )))
(check-synth)

